results/x-long/X-n190-k8.vrp_seed-2.out
16983	1047
